p tw 74 164
0 1
0 2
0 7
0 18
0 35
0 57
1 2
1 26
2 9
2 65
2 68
3 4
3 20
3 27
4 28
4 46
4 47
5 6
5 37
6 21
6 22
7 8
7 9
7 10
7 18
7 35
7 57
8 9
8 10
8 36
9 10
9 65
9 68
10 23
11 12
11 13
11 14
11 25
11 62
11 63
12 13
12 14
12 56
13 14
13 58
13 59
13 60
14 23
14 66
15 16
15 50
16 51
16 62
16 71
17 18
17 31
17 46
18 35
18 57
19 20
19 42
19 55
19 70
20 27
21 22
21 33
21 37
21 38
22 32
22 47
22 52
22 72
23 66
24 25
24 64
25 62
25 63
26 65
27 28
27 29
27 30
28 29
28 30
28 46
28 47
29 30
29 32
29 33
29 34
30 31
31 46
32 33
32 34
32 47
32 52
32 72
33 34
33 37
33 38
34 61
35 36
35 57
37 38
38 52
39 40
39 41
39 42
39 43
39 48
40 41
40 42
40 43
40 69
41 42
41 43
41 67
42 43
42 55
42 70
43 53
43 54
44 45
44 53
44 67
44 70
45 54
46 47
47 52
47 72
48 55
49 50
49 51
49 58
49 63
49 64
49 73
50 51
51 62
51 71
52 72
53 54
53 67
53 70
55 70
56 59
56 69
57 68
58 59
58 60
58 63
58 64
58 73
59 60
59 69
60 66
61 72
62 63
62 71
63 64
63 73
64 73
65 68
67 70
71 73
